##############################################
####                SECTION: basic               
##############################################
 ecut 18.0
 nstep 20
 toldfe 1e-06
 ngkpt 2 2 2
 kptopt 1
 nshiftk 1
 shiftk    0.0    0.0    0.0
##############################################
####                SECTION: files               
##############################################
 pseudos "Si.psp8"
 pp_dirpath "./pseudo/"
##############################################
####                 SECTION: rlx                
##############################################
 ionmov 0
##############################################
####                  STRUCTURE                  
##############################################
 natom 8
 ntypat 1
 typat
 1 1 1
 1 1 1
 1 1
 znucl 14
 xred
    0.0000000000    0.0000000000    0.0000000000
    0.2500000000    0.7500000000    0.7500000000
    0.0000000000    0.5000000000    0.5000000000
    0.2500000000    0.2500000000    0.2500000000
    0.5000000000    0.0000000000    0.5000000000
    0.7500000000    0.7500000000    0.2500000000
    0.5000000000    0.5000000000    0.0000000000
    0.7500000000    0.2500000000    0.7500000000
 acell    1.0    1.0    1.0
 rprim
   10.2612128567    0.0000000000    0.0000000000
    0.0000000000   10.2612128567    0.0000000000
    0.0000000000    0.0000000000   10.2612128567
